RT is False
Default write of storage_offers_DA.csv just to have a file (but constraint should be inactive)
Reading model...
...model read.
creating competitive generators file...
...competitive generators recorded.
Loading data...
.. day-ahead data with real-time VRE data read.
Compiling instance...
...instance created.
Creating Offer Mitigation (model will solve as dispatch if TRUE)...
NOTE: storage offers will not be mitigated
...storage offer mitigation file created
Converting model to MPEC...
...converted
NOTE: initial MIP solve with only storage competitive to get feasible solution
Solving...

Welcome to IBM(R) ILOG(R) CPLEX(R) Interactive Optimizer 12.9.0.0
  with Simplex, Mixed Integer & Barrier Optimizers
5725-A06 5725-A29 5724-Y48 5724-Y49 5724-Y54 5724-Y55 5655-Y21
Copyright IBM Corp. 1988, 2019.  All Rights Reserved.

Type 'help' for a list of available commands.
Type 'help' followed by a command name for more
information on commands.

CPLEX> Logfile 'cplex.log' closed.
Logfile 'C:\Users\Luke\Desktop\test919\logs\tmpnm8snjx8.cplex.log' open.
CPLEX> New value for parallel optimization mode: -1
CPLEX> New value for mixed integer optimality gap tolerance: 0.01
CPLEX> New value for integrality tolerance: 1e-09
CPLEX> New value for feasibility tolerance: 0.01
CPLEX> New value for deterministic time limit in ticks: 75000
CPLEX> Problem 'C:\Users\Luke\Desktop\test919\logs\tmpn6ow66f2.pyomo.lp' read.
Read time = 0.20 sec. (14.73 ticks)
CPLEX> Problem name         : C:\Users\Luke\Desktop\test919\logs\tmpn6ow66f2.pyomo.lp
Objective sense      : Maximize
Variables            :   53805  [Nneg: 1,  Box: 22000,  Free: 4464,
                                 Binary: 27340]
Objective nonzeros   :    9076
Linear constraints   :  123205  [Less: 41346,  Greater: 59096,  Equal: 22763]
  Nonzeros           :  291703
  RHS nonzeros       :   67489

Variables            : Min LB: -5000.000        Max UB: 1000000.       
Objective nonzeros   : Min   : 0.5083333        Max   : 2500.000       
Linear constraints   :
  Nonzeros           : Min   : 0.5083333        Max   : 1000000.       
  RHS nonzeros       : Min   : 0.5083333        Max   : 1000000.       
CPLEX> CPXPARAM_Parallel                                -1
CPXPARAM_Simplex_Tolerances_Feasibility          0.01
CPXPARAM_DetTimeLimit                            75000
CPXPARAM_MIP_Tolerances_MIPGap                   0.01
CPXPARAM_MIP_Tolerances_Integrality              1.0000000000000001e-09
Tried aggregator 3 times.
MIP Presolve eliminated 88691 rows and 19038 columns.
MIP Presolve added 3353 rows and 0 columns.
MIP Presolve modified 24871 coefficients.
Aggregator did 12976 substitutions.
Reduced MIP has 24891 rows, 21234 columns, and 70968 nonzeros.
Reduced MIP has 8406 binaries, 0 generals, 0 SOSs, and 0 indicators.
Presolve time = 0.23 sec. (173.73 ticks)
Probing fixed 377 vars, tightened 2888 bounds.
Probing time = 1.41 sec. (897.36 ticks)
Tried aggregator 2 times.
MIP Presolve eliminated 858 rows and 756 columns.
MIP Presolve modified 2233 coefficients.
Aggregator did 28 substitutions.
Reduced MIP has 24005 rows, 20450 columns, and 68402 nonzeros.
Reduced MIP has 8029 binaries, 0 generals, 0 SOSs, and 0 indicators.
Presolve time = 0.09 sec. (69.57 ticks)
Probing time = 0.03 sec. (15.90 ticks)
Clique table members: 6404.
MIP emphasis: balance optimality and feasibility.
MIP search method: dynamic search.
Parallel mode: opportunistic, using up to 24 threads.
Root relaxation solution time = 0.31 sec. (407.45 ticks)

        Nodes                                         Cuts/
   Node  Left     Objective  IInf  Best Integer    Best Bound    ItCnt     Gap

      0     0        0.0000   619                      0.0000     2508         
*     0+    0                            0.0000        0.0000             0.00%
      0     0        cutoff              0.0000        0.0000     2508    0.00%
Elapsed time = 2.94 sec. (1938.67 ticks, tree = 0.01 MB, solutions = 1)

Root node processing (before b&c):
  Real time             =    2.95 sec. (1940.62 ticks)
Parallel b&c, 24 threads:
  Real time             =    0.00 sec. (0.00 ticks)
  Sync time (average)   =    0.00 sec.
  Wait time (average)   =    0.00 sec.
                          ------------
Total (root+branch&cut) =    2.95 sec. (1940.62 ticks)

Solution pool: 1 solution saved.

MIP - Integer optimal solution:  Objective =  1.0036274034e-09
Solution time =    2.98 sec.  Iterations = 2508  Nodes = 0
Deterministic time = 1940.77 ticks  (650.17 ticks/sec)

CPLEX> Incumbent solution written to file 'C:\Users\Luke\Desktop\test919\logs\tmp50tbxt55.cplex.sol'.
CPLEX> NOTE: no warmstart specified for MIP iteration, default behavior is true
NOTE: resolving with all competitive generators using storage-only solution to warmstart
Solving...

Welcome to IBM(R) ILOG(R) CPLEX(R) Interactive Optimizer 12.9.0.0
  with Simplex, Mixed Integer & Barrier Optimizers
5725-A06 5725-A29 5724-Y48 5724-Y49 5724-Y54 5724-Y55 5655-Y21
Copyright IBM Corp. 1988, 2019.  All Rights Reserved.

Type 'help' for a list of available commands.
Type 'help' followed by a command name for more
information on commands.

CPLEX> Logfile 'cplex.log' closed.
Logfile 'C:\Users\Luke\Desktop\test919\logs\tmplewl6g9a.cplex.log' open.
CPLEX> New value for parallel optimization mode: -1
CPLEX> New value for mixed integer optimality gap tolerance: 0.01
CPLEX> New value for integrality tolerance: 1e-09
CPLEX> New value for feasibility tolerance: 0.01
CPLEX> New value for deterministic time limit in ticks: 75000
CPLEX> Problem 'C:\Users\Luke\Desktop\test919\logs\tmp8g2py3_c.pyomo.lp' read.
Read time = 0.22 sec. (14.75 ticks)
CPLEX> MIP start file 'C:\Users\Luke\Desktop\test919\logs\tmpp5jonaa8.cplex.mst' read.
CPLEX> Problem name         : C:\Users\Luke\Desktop\test919\logs\tmp8g2py3_c.pyomo.lp
Objective sense      : Maximize
Variables            :   54525  [Nneg: 1,  Box: 22720,  Free: 4464,
                                 Binary: 27340]
Objective nonzeros   :    9796
Linear constraints   :  123205  [Less: 41346,  Greater: 59096,  Equal: 22763]
  Nonzeros           :  291703
  RHS nonzeros       :   67489

Variables            : Min LB: -5000.000        Max UB: 1000000.       
Objective nonzeros   : Min   : 0.5083333        Max   : 2500.000       
Linear constraints   :
  Nonzeros           : Min   : 0.5083333        Max   : 1000000.       
  RHS nonzeros       : Min   : 0.5083333        Max   : 1000000.       
CPLEX> CPXPARAM_Parallel                                -1
CPXPARAM_Simplex_Tolerances_Feasibility          0.01
CPXPARAM_DetTimeLimit                            75000
CPXPARAM_MIP_Tolerances_MIPGap                   0.01
CPXPARAM_MIP_Tolerances_Integrality              1.0000000000000001e-09
Warning:  No solution found from 1 MIP starts.
Retaining values of one MIP start for possible repair.
Tried aggregator 3 times.
MIP Presolve eliminated 88691 rows and 19758 columns.
MIP Presolve added 3353 rows and 0 columns.
MIP Presolve modified 24871 coefficients.
Aggregator did 12976 substitutions.
Reduced MIP has 24891 rows, 21234 columns, and 70968 nonzeros.
Reduced MIP has 8406 binaries, 0 generals, 0 SOSs, and 0 indicators.
Presolve time = 0.25 sec. (174.09 ticks)
Probing fixed 377 vars, tightened 2888 bounds.
Probing time = 1.44 sec. (897.36 ticks)
Tried aggregator 2 times.
MIP Presolve eliminated 858 rows and 756 columns.
MIP Presolve modified 2233 coefficients.
Aggregator did 28 substitutions.
Reduced MIP has 24005 rows, 20450 columns, and 68402 nonzeros.
Reduced MIP has 8029 binaries, 0 generals, 0 SOSs, and 0 indicators.
Presolve time = 0.09 sec. (69.57 ticks)
Probing time = 0.03 sec. (15.90 ticks)
Clique table members: 6404.
MIP emphasis: balance optimality and feasibility.
MIP search method: dynamic search.
Parallel mode: opportunistic, using up to 24 threads.
Root relaxation solution time = 0.31 sec. (407.45 ticks)

        Nodes                                         Cuts/
   Node  Left     Objective  IInf  Best Integer    Best Bound    ItCnt     Gap

      0     0        0.0000   619                      0.0000     2508         
*     0+    0                            0.0000        0.0000             0.00%
      0     0        cutoff              0.0000        0.0000     2508    0.00%
Elapsed time = 3.08 sec. (1966.32 ticks, tree = 0.01 MB, solutions = 1)

Root node processing (before b&c):
  Real time             =    3.09 sec. (1968.29 ticks)
Parallel b&c, 24 threads:
  Real time             =    0.00 sec. (0.00 ticks)
  Sync time (average)   =    0.00 sec.
  Wait time (average)   =    0.00 sec.
                          ------------
Total (root+branch&cut) =    3.09 sec. (1968.29 ticks)

Solution pool: 1 solution saved.

MIP - Integer optimal solution:  Objective =  1.0036274034e-09
Solution time =    3.11 sec.  Iterations = 2508  Nodes = 0
Deterministic time = 1968.44 ticks  (633.14 ticks/sec)

CPLEX> Incumbent solution written to file 'C:\Users\Luke\Desktop\test919\logs\tmps_6c7mt8.cplex.sol'.
CPLEX> Exporting results... 
